Version identifier: 20.1.0.0 | 2020-11-10 | 9bedb6d68
CPXPARAM_Threads                                 1
CPXPARAM_TimeLimit                               7200
CPXPARAM_MIP_Tolerances_MIPGap                   0
Generic callback                                 0x60
1 of 1 MIP starts provided solutions.
MIP start 'm1' defined initial solution with objective 1629.5585.
Tried aggregator 1 time.
Reduced MIP has 1 rows, 501 columns, and 500 nonzeros.
Reduced MIP has 500 binaries, 0 generals, 0 SOSs, and 0 indicators.
Presolve time = 0.00 sec. (0.15 ticks)
Probing time = 0.00 sec. (0.05 ticks)
Tried aggregator 1 time.
Reduced MIP has 1 rows, 501 columns, and 500 nonzeros.
Reduced MIP has 500 binaries, 0 generals, 0 SOSs, and 0 indicators.
Presolve time = 0.00 sec. (0.15 ticks)
Probing time = 0.00 sec. (0.05 ticks)
MIP emphasis: balance optimality and feasibility.
MIP search method: dynamic search.
Parallel mode: none, using 1 thread.
Root relaxation solution time = 0.00 sec. (0.10 ticks)

        Nodes                                         Cuts/
   Node  Left     Objective  IInf  Best Integer    Best Bound    ItCnt     Gap

*     0+    0                         1629.5585     5432.0000           233.34%
      0     0     2103.4258     2     1629.5585     5432.0000        0  233.34%
      0     0     1960.1046     4     1629.5585 UserPurge2: 1        5   20.28%
      0     0     1902.5639     5     1629.5585 UserPurge2: 1       15   16.75%
      0     0     1874.6284     7     1629.5585 UserPurge2: 1       29   15.04%
      0     0     1862.4628     8     1629.5585 UserPurge2: 1       45   14.29%
      0     0     1830.2878     7     1629.5585 UserPurge2: 1       78   12.32%
      0     0     1802.6023     8     1629.5585 UserPurge1: 1       85   10.62%
      0     0     1783.3351     9     1629.5585 UserPurge2: 1      105    9.44%
      0     0     1765.3905     9     1629.5585 UserPurge2: 1      127    8.34%
      0     0     1752.4517     9     1629.5585 UserPurge2: 1      146    7.54%
      0     0     1747.4945     8     1629.5585 UserPurge2: 1      161    7.24%
      0     0     1743.1807    10     1629.5585 UserPurge2: 1      169    6.97%
      0     0     1738.5555     9     1629.5585 UserPurge2: 1      191    6.69%
      0     0     1736.8666    10     1629.5585 UserPurge2: 1      197    6.59%
      0     0     1736.7476    12     1629.5585 UserPurge1: 2      202    6.58%
      0     0     1734.0205    10     1629.5585 UserPurge2: 1      214    6.41%
      0     0     1729.5101    10     1629.5585 UserPurge2: 1      229    6.13%
      0     0     1726.9747    10     1629.5585 UserPurge2: 1      243    5.98%
      0     0     1715.0748     9     1629.5585 UserPurge2: 1      264    5.25%
      0     0     1708.1217     8     1629.5585 UserPurge2: 1      273    4.82%
      0     0     1703.8843     8     1629.5585 UserPurge2: 1      279    4.56%
      0     0     1702.8357     8     1629.5585 UserPurge2: 1      287    4.50%
      0     0     1701.8008     9     1629.5585 UserPurge2: 1      295    4.43%
      0     0     1700.3239     9     1629.5585 UserPurge2: 1      309    4.34%
      0     0     1699.5518    10     1629.5585 UserPurge2: 1      322    4.30%
      0     0     1698.1791    10     1629.5585 UserPurge2: 1      333    4.21%
      0     0     1696.3829    10     1629.5585 UserPurge2: 1      345    4.10%
      0     0     1693.9243    10     1629.5585 UserPurge2: 1      359    3.95%
      0     0     1692.6982    10     1629.5585 UserPurge2: 1      374    3.87%
      0     0     1690.6864    11     1629.5585 UserPurge2: 1      379    3.75%
      0     0     1688.3278     9     1629.5585 UserPurge2: 1      392    3.61%
      0     0     1687.1380     9     1629.5585 UserPurge2: 1      405    3.53%
      0     0     1686.2986     9     1629.5585 UserPurge2: 1      415    3.48%
      0     0     1685.9449    10     1629.5585 UserPurge2: 1      422    3.46%
      0     0     1685.6543    11     1629.5585 UserPurge2: 1      428    3.44%
      0     0     1684.4548    12     1629.5585 UserPurge2: 1      441    3.37%
      0     0     1684.0391    13     1629.5585 UserPurge2: 1      447    3.34%
      0     0     1683.7088    14     1629.5585 UserPurge2: 1      457    3.32%
      0     0     1682.9490    14     1629.5585 UserPurge2: 1      467    3.28%
      0     0     1680.9414    13     1629.5585 UserPurge2: 1      484    3.15%
      0     0     1679.8757    13     1629.5585 UserPurge2: 1      493    3.09%
      0     0     1677.2757    11     1629.5585 UserPurge2: 1      517    2.93%
      0     0     1676.6137    12     1629.5585 UserPurge2: 1      525    2.89%
      0     0     1675.6908    13     1629.5585 UserPurge2: 1      536    2.83%
      0     0     1675.3464    13     1629.5585 UserPurge2: 1      545    2.81%
      0     0     1674.6605    14     1629.5585 UserPurge2: 1      558    2.77%
      0     0     1673.2620    13     1629.5585 UserPurge2: 1      579    2.68%
      0     0     1672.8235    14     1629.5585 UserPurge2: 1      592    2.66%
      0     0     1672.6860    15     1629.5585 UserPurge2: 1      598    2.65%
      0     0     1672.5806    15     1629.5585 UserPurge2: 1      604    2.64%
      0     0     1671.9937    14     1629.5585 UserPurge2: 1      617    2.60%
      0     0     1671.6808    14     1629.5585 UserPurge2: 1      626    2.58%
      0     0     1671.3327    14     1629.5585 UserPurge2: 1      643    2.56%
      0     0     1670.9526    14     1629.5585 UserPurge2: 1      653    2.54%
      0     0     1670.7161    15     1629.5585 UserPurge2: 1      661    2.53%
      0     0     1670.2554    16     1629.5585 UserPurge2: 1      675    2.50%
      0     0     1670.0444    17     1629.5585 UserPurge2: 1      682    2.48%
      0     0     1669.2460    16     1629.5585 UserPurge2: 1      707    2.44%
      0     0     1668.7176    15     1629.5585 UserPurge2: 1      720    2.40%
      0     0     1667.9403    15     1629.5585 UserPurge2: 1      730    2.36%
      0     0     1667.6441    16     1629.5585 UserPurge2: 1      745    2.34%
      0     0     1667.3255    17     1629.5585 UserPurge2: 1      758    2.32%
      0     0     1666.7251    17     1629.5585 UserPurge2: 1      771    2.28%
      0     0     1666.3805    17     1629.5585 UserPurge2: 1      783    2.26%
      0     0     1665.2076    18     1629.5585 UserPurge2: 1      803    2.19%
      0     0     1664.2460    17     1629.5585 UserPurge2: 1      838    2.13%
      0     0     1663.8689    18     1629.5585 UserPurge2: 1      847    2.11%
      0     0     1662.9243    17     1629.5585 UserPurge2: 1      868    2.05%
      0     0     1662.4393    16     1629.5585 UserPurge2: 1      881    2.02%
      0     0     1662.1510    17     1629.5585 UserPurge2: 1      891    2.00%
      0     0     1661.1619    15     1629.5585 UserPurge2: 1      913    1.94%
      0     0     1660.7252    13     1629.5585 UserPurge2: 1      924    1.91%
      0     0     1660.6723    14     1629.5585 UserPurge2: 1      926    1.91%
      0     0     1660.4755    15     1629.5585 UserPurge2: 1      934    1.90%
      0     0     1660.4465    16     1629.5585 UserPurge2: 1      937    1.90%
      0     0     1660.4019    17     1629.5585 UserPurge2: 1      943    1.89%
      0     0     1660.3460    18     1629.5585 UserPurge2: 1      948    1.89%
      0     0     1660.1773    19     1629.5585 UserPurge2: 1      957    1.88%
      0     0     1660.0050    18     1629.5585 UserPurge2: 1      970    1.87%
      0     0     1659.4340    19     1629.5585 UserPurge2: 1      982    1.83%
      0     0     1659.2085    19     1629.5585 UserPurge2: 1      990    1.82%
      0     0     1658.8575    18     1629.5585 UserPurge2: 1     1004    1.80%
      0     0     1658.5566    19     1629.5585 UserPurge2: 1     1019    1.78%
      0     0     1658.2884    19     1629.5585 UserPurge2: 1     1033    1.76%
      0     0     1658.0567    18     1629.5585 UserPurge2: 1     1053    1.75%
      0     0     1657.6030    18     1629.5585 UserPurge2: 1     1066    1.72%
      0     0     1657.2315    19     1629.5585 UserPurge2: 1     1085    1.70%
      0     0     1656.8778    18     1629.5585 UserPurge2: 1     1096    1.68%
      0     0     1656.6832    18     1629.5585 UserPurge2: 1     1106    1.66%
      0     0     1656.5259    18     1629.5585 UserPurge2: 1     1117    1.65%
      0     0     1656.4645    19     1629.5585 UserPurge2: 1     1126    1.65%
      0     0     1656.4440    20     1629.5585 UserPurge2: 1     1136    1.65%
      0     0     1656.1456    19     1629.5585 UserPurge2: 1     1160    1.63%
      0     0     1656.0115    19     1629.5585 UserPurge2: 1     1171    1.62%
      0     0     1655.8638    19     1629.5585 UserPurge2: 1     1183    1.61%
      0     0     1655.4907    18     1629.5585 UserPurge2: 1     1194    1.59%
      0     0     1655.4611    19     1629.5585 UserPurge2: 1     1201    1.59%
      0     0     1655.3186    20     1629.5585 UserPurge2: 1     1211    1.58%
      0     0     1655.2788    20     1629.5585 UserPurge2: 1     1220    1.58%
      0     0     1655.0845    21     1629.5585 UserPurge2: 1     1237    1.57%
      0     0     1655.0424    21     1629.5585 UserPurge2: 1     1249    1.56%
      0     0     1654.8707    21     1629.5585 UserPurge2: 1     1268    1.55%
      0     0     1654.6704    21     1629.5585 UserPurge2: 1     1292    1.54%
      0     0     1654.2831    21     1629.5585 UserPurge2: 1     1335    1.52%
      0     0     1653.9433    21     1629.5585 UserPurge2: 1     1347    1.50%
      0     0     1653.2314    21     1629.5585 UserPurge2: 1     1376    1.45%
      0     0     1652.8468    21     1629.5585 UserPurge2: 1     1400    1.43%
      0     0     1652.7894    21     1629.5585 UserPurge2: 1     1411    1.43%
      0     0     1652.7320    20     1629.5585 UserPurge2: 1     1427    1.42%
*     0+    0                         1630.7721     1652.7320             1.35%
      0     2     1652.7320    20     1630.7721     1652.7108     1427    1.35%
Elapsed time = 19.69 sec. (312.74 ticks, tree = 0.01 MB, solutions = 2)
      1     3     1638.2619    23     1630.7721     1652.7108    16109    1.35%
      2     4     1637.9798    53     1630.7721     1638.2613    79188    0.46%
      3     5     1636.6674     6     1630.7721     1638.2613    80421    0.46%
      4     6     1636.5526     4     1630.7721     1638.2613    80564    0.46%
      5     7     1636.5119     4     1630.7721     1638.2613    80720    0.46%
      6     8     1634.6055     5     1630.7721     1638.2613    80820    0.46%
      7     9     1636.3980     4     1630.7721     1638.2613    81024    0.46%
      8    10     1634.1134     4     1630.7721     1638.2613    81098    0.46%
*     9     5      integral     0     1636.1078     1638.2613    81270    0.13%
     11     5     1638.1008    26     1636.1078     1638.1008    86156    0.12%
Elapsed time = 636.72 sec. (226879.45 ticks, tree = 0.20 MB, solutions = 3)
     12     6     1637.9843    21     1636.1078     1638.1006    90959    0.12%
     13     7     1637.4625    10     1636.1078     1638.1006    95423    0.12%
     14     8     1637.2957    13     1636.1078     1638.1006    97791    0.12%
     15     9     1636.4783    16     1636.1078     1638.1006    98035    0.12%
     16    10     1637.0924     8     1636.1078     1638.1006    99901    0.12%
     17    11     1637.0532    14     1636.1078     1638.1006   102784    0.12%
     19    11     1636.9921    14     1636.1078     1638.1006   104488    0.12%
*    20     7      integral     0     1636.8145     1638.1006   104570    0.08%
     21     8     1636.9780    13     1636.8145     1638.1006   105665    0.08%
     22     9     1636.8265    16     1636.8145     1638.1006   109961    0.08%
Elapsed time = 1023.29 sec. (372783.42 ticks, tree = 0.47 MB, solutions = 4)
*    26     3      integral     0     1637.3168     1637.9839   110483    0.04%
     27     2        cutoff           1637.3168     1637.9797   112323    0.04%
     28     1        cutoff           1637.3168     1637.9796   116320    0.04%
     29     0        cutoff           1637.3168     1637.3168   119729    0.00%

User cuts applied:  17135

Root node processing (before b&c):
  Real time             =   19.70 sec. (337.35 ticks)
Sequential b&c:
  Real time             = 1174.01 sec. (427920.02 ticks)
                          ------------
Total (root+branch&cut) = 1193.72 sec. (428257.37 ticks)
@Parameters: 
is_S_cut                                true
is_add_all_yinF                         true
is_start_value                          true
is_usercut                              true
is_visualization                        false
uc_only_rootnode                        false

data                                    Qi
fn                                      data/Qi/instance_1000_500.csv
mode                                    NewSubmodular
solver                                  cplex

p                                       5
r                                       50

EPS                                     1.0e-06
EPS_vio                                 1.0e-04
beta                                    0.10
gap                                     0.00
nodelimit                               Inf
timelimit                               7200.00


@PrintInfos
ItCnt: 119729
Current gap: 0.00 %
Termination Status: OPTIMAL
Primal Status: FEASIBLE_POINT
Solve Time: 1193.72 sec
Objective Value: 1637.316778
Number of Nodes:     30

CutInfo: [phase] num / time (sec) 
ZLP             [phase1]     0 / 0.00 [rLC]     0 / 0.00 [rUC]     0 / 0.00 [sLC]     0 / 0.00 [sUC]     0 / 0.00 
OldSubmodular   [phase1]     0 / 0.00 [rLC]     0 / 0.00 [rUC]     0 / 0.00 [sLC]     0 / 0.00 [sUC]     0 / 0.00 
NewSubmodular   [phase1]     0 / 0.00 [rLC]   102 / 9.50 [rUC]   223 / 7.84 [sLC]     3 / 4.40 [sUC] 17103 / 741.90 
PMP             [phase1]     0 / 0.00 [rLC]     7 / 5.71 [rUC]     0 / 0.00 [sLC]     6 / 4.22 [sUC]    37 / 33.09 
Separation Round: [phase1] 0  [rLC] 62  [rUC] 110  [sLC] 6  [sUC] 3635
Root Best Bound 1638.261279
Root Best Integer: 1630.772088
Best Bound: 1637.316778
Best Integer: 1637.316778

